Using license file /home/benedond/gurobi.lic
Using gurobi.env file
Set parameter Threads to value 1
Academic license - for non-commercial use only
Changed value of parameter TimeLimit to 300.0
   Prev: inf  Min: 0.0  Max: inf  Default: inf
Gurobi Optimizer version 9.0.1 build v9.0.1rc0 (linux64)
Optimize a model with 6270 rows, 6105 columns and 24363 nonzeros
Model fingerprint: 0xd6944b99
Variable types: 55 continuous, 6050 integer (6050 binary)
Coefficient statistics:
  Matrix range     [1e+00, 5e+02]
  Objective range  [3e+01, 5e+02]
  Bounds range     [1e+00, 1e+00]
  RHS range        [1e+00, 3e+03]
Presolve removed 53 rows and 53 columns
Presolve time: 0.37s
Presolved: 6217 rows, 6052 columns, 24151 nonzeros
Variable types: 55 continuous, 5997 integer (5997 binary)

Root relaxation: objective 9.870000e+03, 816 iterations, 0.03 seconds

    Nodes    |    Current Node    |     Objective Bounds      |     Work
 Expl Unexpl |  Obj  Depth IntInf | Incumbent    BestBd   Gap | It/Node Time

     0     0 9870.00000    0   87          - 9870.00000      -     -    0s
     0     0 9870.00000    0   54          - 9870.00000      -     -    1s
     0     0 9870.00000    0  101          - 9870.00000      -     -    6s
     0     0 9870.00000    0   77          - 9870.00000      -     -    6s
     0     0 9870.00000    0   76          - 9870.00000      -     -    6s
     0     0 9870.00000    0   81          - 9870.00000      -     -    6s
     0     0 9870.00000    0   94          - 9870.00000      -     -    7s
     0     0 9870.00000    0   91          - 9870.00000      -     -    7s
     0     0 9870.00000    0  109          - 9870.00000      -     -    7s
H    0     0                    8427.0000000 9870.00000  17.1%     -    7s
H    0     0                    8827.0000000 9870.00000  11.8%     -    8s
     0     0 9870.00000    0   95 8827.00000 9870.00000  11.8%     -    8s
     0     0 9870.00000    0   95 8827.00000 9870.00000  11.8%     -    8s
     0     0 9870.00000    0   93 8827.00000 9870.00000  11.8%     -    8s
     0     0 9870.00000    0   53 8827.00000 9870.00000  11.8%     -    8s
     0     0 9870.00000    0   83 8827.00000 9870.00000  11.8%     -    9s
     0     0 9870.00000    0   99 8827.00000 9870.00000  11.8%     -    9s
     0     0 9870.00000    0   99 8827.00000 9870.00000  11.8%     -    9s
     0     2 9870.00000    0   39 8827.00000 9870.00000  11.8%     -   10s
    82    74 9518.60000   72   91 8827.00000 9870.00000  11.8%  77.4   15s
H  203   179                    8912.0000000 9870.00000  10.7%  54.8   19s
   269   245 9870.00000  235   72 8912.00000 9870.00000  10.7%  50.8   20s
   584   511 9870.00000   66   54 8912.00000 9870.00000  10.7%  41.6   33s
H  585   486                    9268.0000000 9870.00000  6.50%  41.6   34s
   589   488 9870.00000   55   72 9268.00000 9870.00000  6.50%  41.3   35s
H  592   465                    9692.0000000 9870.00000  1.84%  41.1   36s
H  606   451                    9729.0000000 9870.00000  1.45%  40.1   40s
H  634   436                    9810.0000000 9870.00000  0.61%   108   45s
   728   478 9870.00000   89   81 9810.00000 9870.00000  0.61%   106   50s
   892   570 9870.00000  195   76 9810.00000 9870.00000  0.61%  98.5   55s
  1202   647 infeasible   86      9810.00000 9870.00000  0.61%  89.2   60s
  1417   713 9870.00000  121   63 9810.00000 9870.00000  0.61%  85.0   65s
  1589   717 9870.00000  119   72 9810.00000 9870.00000  0.61%  83.5   70s
H 1975   681                    9834.0000000 9870.00000  0.37%  80.6   74s
  1984   680 9870.00000   66   79 9834.00000 9870.00000  0.37%  81.4   75s
  2361   913 9870.00000  207   81 9834.00000 9870.00000  0.37%  80.8   80s
  2821  1098 9870.00000  131   69 9834.00000 9870.00000  0.37%  79.6   85s
  2967  1131 9870.00000  160   70 9834.00000 9870.00000  0.37%  85.2   90s
  3133  1114 infeasible  152      9834.00000 9870.00000  0.37%  88.8   95s
  3400  1108 infeasible  147      9834.00000 9870.00000  0.37%  91.4  100s
  3704  1118 9870.00000  158   71 9834.00000 9870.00000  0.37%  93.3  105s
  3951  1110 9870.00000  157   82 9834.00000 9870.00000  0.37%  95.4  110s
  4158  1120 9870.00000  151   71 9834.00000 9870.00000  0.37%  98.0  115s
  4326  1103 infeasible  150      9834.00000 9870.00000  0.37%   100  120s
  4508  1082 9870.00000  150   63 9834.00000 9870.00000  0.37%   103  125s
  4883  1124 9870.00000  126   74 9834.00000 9870.00000  0.37%   104  130s
  5117  1072 infeasible  144      9834.00000 9870.00000  0.37%   105  135s
  5325  1045 infeasible  142      9834.00000 9870.00000  0.37%   108  140s
  5737  1045 9870.00000  135   66 9834.00000 9870.00000  0.37%   106  145s
  5771  1068 9870.00000  140   52 9834.00000 9870.00000  0.37%   106  150s
  5804  1082 9870.00000   31   81 9834.00000 9870.00000  0.37%   114  155s
  5855  1098 9870.00000   57   53 9834.00000 9870.00000  0.37%   115  160s
  5969  1078 9870.00000   71   59 9834.00000 9870.00000  0.37%   116  165s
  6473  1046 9870.00000   91   90 9834.00000 9870.00000  0.37%   112  170s
  6959  1046 9870.00000   66   55 9834.00000 9870.00000  0.37%   108  175s
  7962  1208 9870.00000   69   52 9834.00000 9870.00000  0.37%   100  180s
  9138  1325 infeasible  103      9834.00000 9870.00000  0.37%  91.8  185s
 10937  1969 9870.00000  154   63 9834.00000 9870.00000  0.37%  80.5  190s
 13035  2532 infeasible  132      9834.00000 9870.00000  0.37%  71.0  195s
 14231  2827 infeasible  113      9834.00000 9870.00000  0.37%  67.3  200s
 15964  3433 9870.00000   71   54 9834.00000 9870.00000  0.37%  62.2  205s
 15990  3450 9870.00000   41   64 9834.00000 9870.00000  0.37%  63.9  210s
 16027  3465 9870.00000   59   66 9834.00000 9870.00000  0.37%  64.4  215s
 16109  3495 9846.00000   71   58 9834.00000 9870.00000  0.37%  64.7  220s
 16367  3578 infeasible  110      9834.00000 9870.00000  0.37%  64.8  225s
 16874  3711 infeasible  109      9834.00000 9870.00000  0.37%  64.9  230s
 17800  3836 infeasible  126      9834.00000 9870.00000  0.37%  64.6  235s
 19047  4066 9870.00000  130   59 9834.00000 9870.00000  0.37%  63.6  240s
 20508  3966 9870.00000   99   54 9834.00000 9870.00000  0.37%  62.5  245s
 21064  4055 9870.00000  114   47 9834.00000 9870.00000  0.37%  62.1  256s
 22362  4201 9870.00000   98   63 9834.00000 9870.00000  0.37%  61.1  260s
 23615  4226 9870.00000   89   53 9834.00000 9870.00000  0.37%  60.6  265s
 25341  4302 9870.00000   89   44 9834.00000 9870.00000  0.37%  59.6  270s
 26550  4138 9870.00000  106   57 9834.00000 9870.00000  0.37%  59.2  275s
 27971  5006 9870.00000  112   59 9834.00000 9870.00000  0.37%  58.2  280s
 29892  5870 9870.00000   89   56 9834.00000 9870.00000  0.37%  57.0  285s
 31337  6516 infeasible  136      9834.00000 9870.00000  0.37%  56.5  290s
 32876  6890 9870.00000   86   52 9834.00000 9870.00000  0.37%  56.2  295s

Cutting planes:
  Projected implied bound: 2
  MIR: 5
  Flow cover: 21
  Relax-and-lift: 3

Explored 33952 nodes (1902750 simplex iterations) in 300.00 seconds
Thread count was 1 (of 4 available processors)

Solution count 8: 9834 9810 9729 ... 8427

Time limit reached
Best objective 9.834000000000e+03, best bound 9.870000000000e+03, gap 0.3661%
